* ENCODING=ISO-8859-1
NAME          CPLEX
ROWS
 N  obj1    
 G  c1      
 G  c2      
 G  c3      
 G  c4      
 G  c5      
 G  c6      
 G  c7      
 G  c8      
 G  c9      
 G  c10     
 G  c11     
 G  c12     
 G  c13     
 G  c14     
 G  c15     
 G  c16     
 G  c17     
 G  c18     
 G  c19     
 G  c20     
 G  c21     
 G  c22     
 G  c23     
 G  c24     
 G  c25     
COLUMNS
    MARK0000  'MARKER'                 'INTORG'
    x1        obj1                            1
    x1        c18                           762
    x2        obj1                            1
    x2        c11                           739
    x3        obj1                            1
    x3        c1                            139
    x3        c5                            335
    x4        obj1                            1
    x4        c1                            589
    x4        c3                            837
    x4        c10                           235
    x5        obj1                            1
    x5        c21                           257
    x5        c24                           889
    x6        obj1                            1
    x6        c19                           825
    x7        obj1                            1
    x7        c13                           968
    x7        c17                           386
    x8        obj1                            1
    x8        c7                            122
    x8        c10                           480
    x8        c23                           804
    x8        c24                           425
    x9        obj1                            1
    x9        c5                            145
    x9        c7                            511
    x9        c25                           492
    x10       obj1                            1
    x10       c2                            448
    x10       c3                            328
    x10       c5                            873
    x10       c23                           342
    x10       c24                           769
    x11       obj1                            1
    x11       c5                            658
    x11       c8                            148
    x11       c9                            754
    x12       obj1                            1
    x12       c10                           556
    x12       c11                           192
    x12       c19                           948
    x12       c23                           109
    x13       obj1                            1
    x13       c10                           125
    x14       obj1                            1
    x14       c17                           345
    x14       c20                           798
    x15       obj1                            1
    x15       c14                           262
    x16       obj1                            1
    x16       c2                            279
    x16       c16                           103
    x16       c21                           830
    x17       obj1                            1
    x17       c15                           581
    x18       obj1                            1
    x18       c2                            566
    x19       obj1                            1
    x19       c12                           839
    x19       c14                           358
    x19       c23                           941
    x20       obj1                            1
    x20       c10                           735
    x21       obj1                            1
    x21       c21                           900
    x22       obj1                            1
    x22       c3                            221
    x22       c4                            406
    x22       c11                           716
    x23       obj1                            1
    x23       c16                           209
    x23       c17                           881
    x24       obj1                            1
    x24       c18                           410
    x24       c20                           128
    x24       c24                           124
    x25       obj1                            1
    x25       c3                            366
    x25       c8                            286
    x25       c9                            841
    x25       c13                           274
    x25       c15                           725
    x26       obj1                            1
    x26       c11                           311
    x26       c14                           465
    x26       c17                           629
    x26       c18                           611
    x27       obj1                            1
    x27       c14                           549
    x28       obj1                            1
    x28       c5                            609
    x28       c13                           248
    x29       obj1                            1
    x29       c5                            466
    x29       c6                            173
    x29       c7                            543
    x29       c22                           941
    x29       c25                           186
    x30       obj1                            1
    x30       c1                            334
    x30       c2                            475
    x30       c16                           818
    x30       c20                           414
    x31       obj1                            1
    x31       c14                           529
    x31       c20                           418
    x32       obj1                            1
    x32       c4                            523
    x32       c16                           832
    x32       c17                           165
    x33       obj1                            1
    x33       c15                           124
    x33       c19                           225
    x33       c22                           560
    x34       obj1                            1
    x34       c8                            633
    x34       c12                           421
    x34       c13                           776
    x34       c19                           467
    x35       obj1                            1
    x35       c1                            877
    x35       c6                            280
    x35       c7                            506
    x35       c8                            254
    x36       obj1                            1
    x36       c1                            798
    x36       c8                            864
    x36       c13                           878
    x36       c22                           699
    x36       c24                           634
    x37       obj1                            1
    x38       obj1                            1
    x38       c1                            178
    x39       obj1                            1
    x39       c2                            236
    x39       c13                           130
    x39       c20                           658
    x40       obj1                            1
    x40       c9                            103
    x40       c11                           294
    x40       c24                           117
    x41       obj1                            1
    x41       c10                           121
    x42       obj1                            1
    x42       c17                           505
    x42       c23                           734
    x43       obj1                            1
    x43       c7                            746
    x43       c14                           982
    x43       c18                           999
    x44       obj1                            1
    x44       c4                            212
    x44       c7                            692
    x45       obj1                            1
    x45       c2                            995
    x45       c8                            554
    x45       c12                           345
    x46       obj1                            1
    x46       c3                            290
    x46       c4                            404
    x46       c20                           600
    x46       c21                           891
    x47       obj1                            1
    x47       c3                            998
    x47       c9                            101
    x47       c10                           363
    x48       obj1                            1
    x48       c2                            885
    x48       c3                            808
    x48       c6                            733
    x48       c9                            511
    x48       c17                           433
    x48       c21                           827
    x49       obj1                            1
    x49       c1                            937
    x49       c13                           765
    x49       c18                           502
    x50       obj1                            1
    x50       c20                           444
    x50       c25                           222
    MARK0001  'MARKER'                 'INTEND'
RHS
    rhs       c1                           1926
    rhs       c2                           1942
    rhs       c3                           1924
    rhs       c4                            773
    rhs       c5                           1543
    rhs       c6                            593
    rhs       c7                           1560
    rhs       c8                           1370
    rhs       c9                           1155
    rhs       c10                          1308
    rhs       c11                          1126
    rhs       c12                           803
    rhs       c13                          2020
    rhs       c14                          1573
    rhs       c15                           715
    rhs       c16                           981
    rhs       c17                          1672
    rhs       c18                          1642
    rhs       c19                          1233
    rhs       c20                          1730
    rhs       c21                          1853
    rhs       c22                          1100
    rhs       c23                          1465
    rhs       c24                          1479
    rhs       c25                           450
BOUNDS
 LI bnd       x1        0
 LI bnd       x2        0
 LI bnd       x3        0
 LI bnd       x4        0
 LI bnd       x5        0
 LI bnd       x6        0
 LI bnd       x7        0
 LI bnd       x8        0
 LI bnd       x9        0
 LI bnd       x10       0
 LI bnd       x11       0
 LI bnd       x12       0
 LI bnd       x13       0
 LI bnd       x14       0
 LI bnd       x15       0
 LI bnd       x16       0
 LI bnd       x17       0
 LI bnd       x18       0
 LI bnd       x19       0
 LI bnd       x20       0
 LI bnd       x21       0
 LI bnd       x22       0
 LI bnd       x23       0
 LI bnd       x24       0
 LI bnd       x25       0
 LI bnd       x26       0
 LI bnd       x27       0
 LI bnd       x28       0
 LI bnd       x29       0
 LI bnd       x30       0
 LI bnd       x31       0
 LI bnd       x32       0
 LI bnd       x33       0
 LI bnd       x34       0
 LI bnd       x35       0
 LI bnd       x36       0
 LI bnd       x37       0
 LI bnd       x38       0
 LI bnd       x39       0
 LI bnd       x40       0
 LI bnd       x41       0
 LI bnd       x42       0
 LI bnd       x43       0
 LI bnd       x44       0
 LI bnd       x45       0
 LI bnd       x46       0
 LI bnd       x47       0
 LI bnd       x48       0
 LI bnd       x49       0
 LI bnd       x50       0
ENDATA
